

******************************************************************************
This program contains Ipopt, a library for large-scale nonlinear optimization.
 Ipopt is released as open source code under the Eclipse Public License (EPL).
         For more information visit https://github.com/coin-or/Ipopt
******************************************************************************

This is Ipopt version 3.14.11, running with linear solver MUMPS 5.5.1.

Number of nonzeros in equality constraint Jacobian...:        2
Number of nonzeros in inequality constraint Jacobian.:        0
Number of nonzeros in Lagrangian Hessian.............:        2

Total number of variables............................:        2
                     variables with only lower bounds:        0
                variables with lower and upper bounds:        0
                     variables with only upper bounds:        0
Total number of equality constraints.................:        1
Total number of inequality constraints...............:        0
        inequality constraints with only lower bounds:        0
   inequality constraints with lower and upper bounds:        0
        inequality constraints with only upper bounds:        0

iter    objective    inf_pr   inf_du lg(mu)  ||d||  lg(rg) alpha_du alpha_pr  ls
   0 -1.0000000e+02 1.00e+00 1.00e+00  -1.0 0.00e+00    -  0.00e+00 0.00e+00   0
   1 -1.0000250e+02 1.00e+00 2.66e+06  -1.7 5.00e-03    -  1.00e+00 1.00e+00h  1
   2 -3.8970395e+01 3.82e-01 1.16e+12  -1.7 1.00e+02  10.0 1.00e+00 7.81e-03h  8
   3  4.8676095e+00 5.90e-02 7.21e+10  -1.7 2.43e-01  12.2 1.00e+00 1.00e+00h  1
   4 -9.1832391e-01 8.21e-04 1.39e+10  -1.7 2.87e-02  11.8 1.00e+00 1.00e+00f  1
   5 -9.9998325e-01 1.68e-07 5.70e+06  -1.7 4.10e-04    -  1.00e+00 1.00e+00f  1
   6 -1.0000000e+00 7.11e-15 4.79e-01  -1.7 8.42e-08    -  1.00e+00 1.00e+00h  1
   7 -1.0000000e+00 0.00e+00 0.00e+00  -1.7 3.55e-15    -  1.00e+00 1.00e+00   0

Number of Iterations....: 7

                                   (scaled)                 (unscaled)
Objective...............:  -1.0000000000000000e+00   -1.0000000000000000e+00
Dual infeasibility......:   0.0000000000000000e+00    0.0000000000000000e+00
Constraint violation....:   0.0000000000000000e+00    0.0000000000000000e+00
Variable bound violation:   0.0000000000000000e+00    0.0000000000000000e+00
Complementarity.........:   0.0000000000000000e+00    0.0000000000000000e+00
Overall NLP error.......:   0.0000000000000000e+00    0.0000000000000000e+00


Number of objective function evaluations             = 15
Number of objective gradient evaluations             = 8
Number of equality constraint evaluations            = 16
Number of inequality constraint evaluations          = 0
Number of equality constraint Jacobian evaluations   = 8
Number of inequality constraint Jacobian evaluations = 0
Number of Lagrangian Hessian evaluations             = 7
Total seconds in IPOPT                               = 0.006

EXIT: Optimal Solution Found.
 
Ipopt 3.14.11: Optimal Solution Found
